r = [
0,168,157,171,131,104,49,102,66,114,165,125,155,75,109,142,45,118,161,42,61,6,134,56,143,59,0
];
p = [
0,21,1,20,1,23,30,10,11,9,3,5,24,1,12,25,6,4,30,10,12,20,21,8,11,30,0
];
e = [
0,10,8,9,9,5,6,20,7,19,11,6,11,8,6,17,20,1,4,12,4,9,1,2,15,12,0
];
d = [
0,227,286,233,333,191,256,224,187,370,218,312,301,218,130,320,267,345,279,276,229,226,337,317,323,115,378
];
d_bar = [
0,246,287,251,334,212,283,233,197,378,221,317,323,219,141,343,272,349,306,285,240,244,356,324,333,142,378
];
w = [
0,0.526315789,8,0.5,9,0.238095238,0.222222222,2.222222222,0.7,2.375,3.666666667,1.2,0.5,8,0.545454545,0.739130435,4,0.25,0.148148148,1.333333333,0.363636364,0.5,0.052631579,0.285714286,1.5,0.444444444,0
];
